solution status: optimal solution found
objective value:                     144267.973500018
d11(0,0)                                            1 	(obj:0)
d11(1,1)                                            1 	(obj:0)
d11(1,2)                                            1 	(obj:0)
d11(2,4)                                            1 	(obj:0)
d11(2,5)                                            1 	(obj:0)
d11(2,7)                                            1 	(obj:0)
d11(2,8)                                            1 	(obj:0)
d11(2,9)                                            1 	(obj:0)
d11(2,10)                                           1 	(obj:0)
d11(2,11)                                           1 	(obj:0)
d11(3,13)                                           1 	(obj:0)
d11(3,16)                                           1 	(obj:0)
d11(3,19)                                           1 	(obj:0)
d11(3,22)                                           1 	(obj:0)
d11(3,25)                                           1 	(obj:0)
d11(3,28)                                           1 	(obj:0)
d11(3,31)                                           1 	(obj:0)
d11(3,34)                                           1 	(obj:0)
d11(3,37)                                           1 	(obj:0)
d12(1,3)                                            1 	(obj:0)
d12(3,14)                                           1 	(obj:0)
d12(3,15)                                           1 	(obj:0)
d12(3,17)                                           1 	(obj:0)
d12(3,18)                                           1 	(obj:0)
d12(3,20)                                           1 	(obj:0)
d12(3,21)                                           1 	(obj:0)
d12(3,23)                                           1 	(obj:0)
d12(3,24)                                           1 	(obj:0)
d12(3,26)                                           1 	(obj:0)
d12(3,27)                                           1 	(obj:0)
d12(3,29)                                           1 	(obj:0)
d12(3,30)                                           1 	(obj:0)
d12(3,32)                                           1 	(obj:0)
d12(3,33)                                           1 	(obj:0)
d12(3,35)                                           1 	(obj:0)
d12(3,36)                                           1 	(obj:0)
d12(3,38)                                           1 	(obj:0)
d12(3,39)                                           1 	(obj:0)
d12(4,40)                                           1 	(obj:0)
d12(4,41)                                           1 	(obj:0)
d12(4,42)                                           1 	(obj:0)
d12(4,43)                                           1 	(obj:0)
d12(4,44)                                           1 	(obj:0)
d12(4,45)                                           1 	(obj:0)
d12(4,46)                                           1 	(obj:0)
d12(4,47)                                           1 	(obj:0)
d12(4,48)                                           1 	(obj:0)
d12(4,49)                                           1 	(obj:0)
d12(4,50)                                           1 	(obj:0)
d12(4,51)                                           1 	(obj:0)
d12(4,52)                                           1 	(obj:0)
d12(4,53)                                           1 	(obj:0)
d12(4,54)                                           1 	(obj:0)
d12(4,55)                                           1 	(obj:0)
d12(4,56)                                           1 	(obj:0)
d12(4,57)                                           1 	(obj:0)
d12(4,58)                                           1 	(obj:0)
d12(4,59)                                           1 	(obj:0)
d12(4,60)                                           1 	(obj:0)
d12(4,61)                                           1 	(obj:0)
d12(4,62)                                           1 	(obj:0)
d12(4,63)                                           1 	(obj:0)
d12(4,64)                                           1 	(obj:0)
d12(4,65)                                           1 	(obj:0)
d12(4,66)                                           1 	(obj:0)
d12(4,67)                                           1 	(obj:0)
d12(4,68)                                           1 	(obj:0)
d12(4,69)                                           1 	(obj:0)
d12(4,70)                                           1 	(obj:0)
d12(4,71)                                           1 	(obj:0)
d12(4,72)                                           1 	(obj:0)
d12(4,73)                                           1 	(obj:0)
d12(4,74)                                           1 	(obj:0)
d12(4,75)                                           1 	(obj:0)
d12(4,77)                                           1 	(obj:0)
d12(4,78)                                           1 	(obj:0)
d12(4,79)                                           1 	(obj:0)
d12(4,80)                                           1 	(obj:0)
d12(4,81)                                           1 	(obj:0)
d12(4,82)                                           1 	(obj:0)
d12(4,83)                                           1 	(obj:0)
d12(4,84)                                           1 	(obj:0)
d12(4,85)                                           1 	(obj:0)
d12(4,86)                                           1 	(obj:0)
d12(4,87)                                           1 	(obj:0)
d12(4,88)                                           1 	(obj:0)
d12(4,89)                                           1 	(obj:0)
d12(4,90)                                           1 	(obj:0)
d12(4,91)                                           1 	(obj:0)
d12(4,92)                                           1 	(obj:0)
d12(4,93)                                           1 	(obj:0)
d12(4,95)                                           1 	(obj:0)
d12(4,96)                                           1 	(obj:0)
d12(4,97)                                           1 	(obj:0)
d12(4,98)                                           1 	(obj:0)
d12(4,99)                                           1 	(obj:0)
d12(4,100)                                          1 	(obj:0)
d12(4,101)                                          1 	(obj:0)
d12(4,102)                                          1 	(obj:0)
d12(4,103)                                          1 	(obj:0)
d12(4,104)                                          1 	(obj:0)
d12(4,105)                                          1 	(obj:0)
d12(4,106)                                          1 	(obj:0)
d12(4,107)                                          1 	(obj:0)
d12(4,108)                                          1 	(obj:0)
d12(4,109)                                          1 	(obj:0)
d12(4,110)                                          1 	(obj:0)
d12(4,111)                                          1 	(obj:0)
d12(4,112)                                          1 	(obj:0)
d12(4,113)                                          1 	(obj:0)
d12(4,114)                                          1 	(obj:0)
d12(4,115)                                          1 	(obj:0)
d12(4,116)                                          1 	(obj:0)
d12(4,117)                                          1 	(obj:0)
d12(4,118)                                          1 	(obj:0)
d12(4,119)                                          1 	(obj:0)
d12(4,120)                                          1 	(obj:0)
d21(2,4)                                            1 	(obj:0)
d21(3,13)                                           1 	(obj:0)
d21(3,14)                                           1 	(obj:0)
d21(3,15)                                           1 	(obj:0)
d21(3,16)                                           1 	(obj:0)
d21(3,17)                                           1 	(obj:0)
d21(3,22)                                           1 	(obj:0)
d21(3,23)                                           1 	(obj:0)
d21(4,40)                                           1 	(obj:0)
d21(4,41)                                           1 	(obj:0)
d21(4,42)                                           1 	(obj:0)
d21(4,43)                                           1 	(obj:0)
d21(4,44)                                           1 	(obj:0)
d21(4,46)                                           1 	(obj:0)
d21(4,49)                                           1 	(obj:0)
d21(4,50)                                           1 	(obj:0)
d21(4,52)                                           1 	(obj:0)
d21(4,58)                                           1 	(obj:0)
d21(4,67)                                           1 	(obj:0)
d21(4,68)                                           1 	(obj:0)
d21(4,70)                                           1 	(obj:0)
d21(4,76)                                           1 	(obj:0)
d21(4,94)                                           1 	(obj:0)
y2(4,101)                            897.089402999962 	(obj:0)
y2(4,102)                                 1992.796386 	(obj:0)
y2(4,104)                            897.089402999962 	(obj:0)
y2(4,105)                                 1992.796386 	(obj:0)
y2(4,107)                            897.089402999962 	(obj:0)
y2(4,108)                                 1992.796386 	(obj:0)
y2(4,110)                            897.089402999962 	(obj:0)
y2(4,111)                                 1992.796386 	(obj:0)
y2(4,113)                            897.089402999962 	(obj:0)
y2(4,114)                                 1992.796386 	(obj:0)
y2(4,116)                            897.089402999962 	(obj:0)
y2(4,117)                                 1992.796386 	(obj:0)
y2(4,119)                            897.089402999962 	(obj:0)
y2(4,120)                                 1992.796386 	(obj:0)
STE(1,1)                             2324.76436339869 	(obj:0)
STE(0,0)                                         4725 	(obj:0)
STE(1,2)                             3321.53036673195 	(obj:0)
STE(1,3)                                         4347 	(obj:0)
STE(2,4)                            -267.453843267979 	(obj:0)
STE(2,5)                             729.312160065312 	(obj:0)
STE(2,6)                             1946.76436339869 	(obj:0)
STE(2,7)                             729.312160065279 	(obj:0)
STE(2,8)                             1726.07816339857 	(obj:0)
STE(2,9)                             2943.53036673195 	(obj:0)
STE(2,10)                            1754.78179333333 	(obj:0)
STE(2,11)                            2751.54779666662 	(obj:0)
STE(2,12)                                        3969 	(obj:0)
STE(3,13)                           -1497.98050019613 	(obj:0)
STE(3,14)                           -645.453843267979 	(obj:0)
STE(3,15)                            395.467790582059 	(obj:0)
STE(3,16)                           -501.214496862753 	(obj:0)
STE(3,17)                            351.312160065312 	(obj:0)
STE(3,18)                            1392.23379391535 	(obj:0)
STE(3,19)                            716.237706470626 	(obj:0)
STE(3,20)                            1568.76436339869 	(obj:0)
STE(3,21)                            2609.68599724873 	(obj:0)
STE(3,22)                           -501.214496862785 	(obj:0)
STE(3,23)                            351.312160065279 	(obj:0)
STE(3,24)                            1392.23379391532 	(obj:0)
STE(3,25)                            495.551506470506 	(obj:0)
STE(3,26)                            1348.07816339857 	(obj:0)
STE(3,27)                            2388.99979724861 	(obj:0)
STE(3,28)                            1713.00370980388 	(obj:0)
STE(3,29)                            2565.53036673195 	(obj:0)
STE(3,30)                            3606.45200058199 	(obj:0)
STE(3,31)                            524.255136405266 	(obj:0)
STE(3,32)                            1376.78179333333 	(obj:0)
STE(3,33)                            2417.70342718337 	(obj:0)
STE(3,34)                            1521.02113973856 	(obj:0)
STE(3,35)                            2373.54779666662 	(obj:0)
STE(3,36)                            3414.46943051666 	(obj:0)
STE(3,37)                            2738.47334307194 	(obj:0)
STE(3,38)                                        3591 	(obj:0)
STE(3,39)                            4631.92163385004 	(obj:0)
STE(4,40)                           -1875.98050019613 	(obj:0)
STE(4,41)                           -1023.74556734617 	(obj:0)
STE(4,42)                            17.1760665038691 	(obj:0)
STE(4,43)                           -1023.45384326798 	(obj:0)
STE(4,44)                           -171.218910418016 	(obj:0)
STE(4,45)                            869.702723432022 	(obj:0)
STE(4,46)                            17.4677905820588 	(obj:0)
STE(4,47)                            869.702723432022 	(obj:0)
STE(4,48)                            1910.62435728206 	(obj:0)
STE(4,49)                           -879.214496862753 	(obj:0)
STE(4,50)                           -26.9795640127893 	(obj:0)
STE(4,51)                            1013.94206983725 	(obj:0)
STE(4,52)                           -26.6878399346884 	(obj:0)
STE(4,53)                            825.547092915275 	(obj:0)
STE(4,54)                            1866.46872676531 	(obj:0)
STE(4,55)                            1014.23379391535 	(obj:0)
STE(4,56)                            1866.46872676531 	(obj:0)
STE(4,57)                            2907.39036061535 	(obj:0)
STE(4,58)                            338.237706470626 	(obj:0)
STE(4,59)                            1190.47263932059 	(obj:0)
STE(4,60)                            2231.39427317063 	(obj:0)
STE(4,61)                            1190.76436339869 	(obj:0)
STE(4,62)                            2042.99929624865 	(obj:0)
STE(4,63)                            3083.92093009869 	(obj:0)
STE(4,64)                            2231.68599724873 	(obj:0)
STE(4,65)                            3083.92093009869 	(obj:0)
STE(4,66)                            4124.84256394873 	(obj:0)
STE(4,67)                           -879.214496862785 	(obj:0)
STE(4,68)                           -26.9795640128217 	(obj:0)
STE(4,69)                            1013.94206983722 	(obj:0)
STE(4,70)                           -26.6878399347207 	(obj:0)
STE(4,71)                            825.547092915243 	(obj:0)
STE(4,72)                            1866.46872676528 	(obj:0)
STE(4,73)                            1014.23379391532 	(obj:0)
STE(4,74)                            1866.46872676528 	(obj:0)
STE(4,75)                            2907.39036061532 	(obj:0)
STE(4,76)                            117.551506470506 	(obj:0)
STE(4,77)                             969.78643932047 	(obj:0)
STE(4,78)                            2010.70807317051 	(obj:0)
STE(4,79)                            970.078163398571 	(obj:0)
STE(4,80)                            1822.31309624853 	(obj:0)
STE(4,81)                            2863.23473009857 	(obj:0)
STE(4,82)                            2010.99979724861 	(obj:0)
STE(4,83)                            2863.23473009857 	(obj:0)
STE(4,84)                            3904.15636394861 	(obj:0)
STE(4,85)                            1335.00370980388 	(obj:0)
STE(4,86)                            2187.23864265385 	(obj:0)
STE(4,87)                            3228.16027650389 	(obj:0)
STE(4,88)                            2187.53036673195 	(obj:0)
STE(4,89)                            3039.76529958191 	(obj:0)
STE(4,90)                            4080.68693343195 	(obj:0)
STE(4,91)                            3228.45200058199 	(obj:0)
STE(4,92)                            4080.68693343195 	(obj:0)
STE(4,93)                            5121.60856728199 	(obj:0)
STE(4,94)                            146.255136405266 	(obj:0)
STE(4,95)                             998.49006925523 	(obj:0)
STE(4,96)                            2039.41170310527 	(obj:0)
STE(4,97)                            998.781793333331 	(obj:0)
STE(4,98)                            1851.01672618329 	(obj:0)
STE(4,99)                            2891.93836003333 	(obj:0)
STE(4,100)                           2039.70342718337 	(obj:0)
STE(4,101)                           2891.93836003333 	(obj:0)
STE(4,102)                           3932.85999388337 	(obj:0)
STE(4,103)                           1143.02113973856 	(obj:0)
STE(4,104)                           1995.25607258852 	(obj:0)
STE(4,105)                           3036.17770643856 	(obj:0)
STE(4,106)                           1995.54779666662 	(obj:0)
STE(4,107)                           2847.78272951659 	(obj:0)
STE(4,108)                           3888.70436336662 	(obj:0)
STE(4,109)                           3036.46943051666 	(obj:0)
STE(4,110)                           3888.70436336662 	(obj:0)
STE(4,111)                           4929.62599721666 	(obj:0)
STE(4,112)                           2360.47334307194 	(obj:0)
STE(4,113)                            3212.7082759219 	(obj:0)
STE(4,114)                           4253.62990977194 	(obj:0)
STE(4,115)                                       3213 	(obj:0)
STE(4,116)                           4065.23493284996 	(obj:0)
STE(4,117)                               5106.1565667 	(obj:0)
STE(4,118)                           4253.92163385004 	(obj:0)
STE(4,119)                               5106.1565667 	(obj:0)
STE(4,120)                           6147.07820055004 	(obj:0)
WB(3)                                 3399.3204933139 	(obj:0)
AVE(3)                                3399.3204933139 	(obj:0)
WB(4)                                3353.21046544222 	(obj:0)
AVE(4)                               3353.21046544222 	(obj:0)
y2(4,99)                                  1992.796386 	(obj:0)
BG(1)                                4319.60782647058 	(obj:10)
BG(2)                                4495.91834999935 	(obj:10)
BG(3)                                 3245.3852941176 	(obj:10)
BG(4)                                2365.88587941175 	(obj:10)
WB(1)                                3134.60043707458 	(obj:0)
AVE(1)                               3134.60043707458 	(obj:0)
WB(2)                                3326.45170866578 	(obj:0)
AVE(2)                               3326.45170866643 	(obj:0)
y1(1,1)                              1820.01207294118 	(obj:0)
y1(1,2)                              922.922669941247 	(obj:0)
y1(2,4)                                   1992.796386 	(obj:0)
y1(2,5)                              1095.70698300004 	(obj:0)
y1(2,7)                                   1992.796386 	(obj:0)
y1(2,8)                              1095.70698300004 	(obj:0)
y1(2,10)                                  1992.796386 	(obj:0)
y1(2,11)                             1095.70698300004 	(obj:0)
y1(3,13)                             767.273991235338 	(obj:0)
y1(3,16)                             767.273991235258 	(obj:0)
y1(3,19)                             767.273991235258 	(obj:0)
y1(3,22)                             767.273991235258 	(obj:0)
y1(3,25)                             767.273991235258 	(obj:0)
y1(3,28)                             767.273991235258 	(obj:0)
y1(3,31)                             767.273991235258 	(obj:0)
y1(3,34)                             767.273991235258 	(obj:0)
y1(3,37)                             767.273991235258 	(obj:0)
y2(3,15)                             1095.70698300004 	(obj:0)
y2(3,18)                             1095.70698300004 	(obj:0)
y2(3,21)                             1095.70698300004 	(obj:0)
y2(3,24)                             1095.70698300004 	(obj:0)
y2(3,27)                             1095.70698300004 	(obj:0)
y2(3,30)                             1095.70698300004 	(obj:0)
y2(3,33)                             1095.70698300004 	(obj:0)
y2(3,36)                             1095.70698300004 	(obj:0)
y2(3,39)                             1095.70698300004 	(obj:0)
y2(4,41)                             897.089402999962 	(obj:0)
y2(4,42)                                  1992.796386 	(obj:0)
y2(4,44)                             897.089402999962 	(obj:0)
y2(4,45)                                  1992.796386 	(obj:0)
y2(4,47)                             897.089402999962 	(obj:0)
y2(4,48)                                  1992.796386 	(obj:0)
y2(4,50)                             897.089402999962 	(obj:0)
y2(4,51)                                  1992.796386 	(obj:0)
y2(4,53)                             897.089402999962 	(obj:0)
y2(4,54)                                  1992.796386 	(obj:0)
y2(4,56)                             897.089402999962 	(obj:0)
y2(4,57)                                  1992.796386 	(obj:0)
y2(4,59)                             897.089402999962 	(obj:0)
y2(4,60)                                  1992.796386 	(obj:0)
y2(4,62)                             897.089402999962 	(obj:0)
y2(4,63)                                  1992.796386 	(obj:0)
y2(4,65)                             897.089402999962 	(obj:0)
y2(4,66)                                  1992.796386 	(obj:0)
y2(4,68)                             897.089402999962 	(obj:0)
y2(4,69)                                  1992.796386 	(obj:0)
y2(4,71)                             897.089402999962 	(obj:0)
y2(4,72)                                  1992.796386 	(obj:0)
y2(4,74)                             897.089402999962 	(obj:0)
y2(4,75)                                  1992.796386 	(obj:0)
y2(4,77)                             897.089402999962 	(obj:0)
y2(4,78)                                  1992.796386 	(obj:0)
y2(4,80)                             897.089402999962 	(obj:0)
y2(4,81)                                  1992.796386 	(obj:0)
y2(4,83)                             897.089402999962 	(obj:0)
y2(4,84)                                  1992.796386 	(obj:0)
y2(4,86)                             897.089402999962 	(obj:0)
y2(4,87)                                  1992.796386 	(obj:0)
y2(4,89)                             897.089402999962 	(obj:0)
y2(4,90)                                  1992.796386 	(obj:0)
y2(4,92)                             897.089402999962 	(obj:0)
y2(4,93)                                  1992.796386 	(obj:0)
y2(4,95)                             897.089402999962 	(obj:0)
y2(4,96)                                  1992.796386 	(obj:0)
y2(4,98)                             897.089402999962 	(obj:0)
